; benchmark generated from python API
(set-info :status unknown)
(declare-fun x_months () Int)
(declare-fun x_beta () Int)
(declare-fun y_months () Int)
(declare-fun y_beta () Int)
(assert
 (<= (- 1202) x_months))
(assert
 (>= 1209 x_months))
(assert
 (let ((?x3224 (mod x_months 48)))
 (let ((?x13 ((as const (Array Int Int)) 0)))
 (let ((?x15 (store ?x13 0 31)))
 (let ((?x18 (store ?x15 1 30)))
 (let ((?x20 (store ?x18 2 31)))
 (let ((?x22 (store ?x20 3 30)))
 (let ((?x24 (store ?x22 4 31)))
 (let ((?x26 (store ?x24 5 31)))
 (let ((?x28 (store ?x26 6 30)))
 (let ((?x30 (store ?x28 7 31)))
 (let ((?x32 (store ?x30 8 30)))
 (let ((?x34 (store ?x32 9 31)))
 (let ((?x36 (store ?x34 10 31)))
 (let ((?x39 (store ?x36 11 28)))
 (let ((?x41 (store ?x39 12 31)))
 (let ((?x43 (store ?x41 13 30)))
 (let ((?x45 (store ?x43 14 31)))
 (let ((?x47 (store ?x45 15 30)))
 (let ((?x49 (store ?x47 16 31)))
 (let ((?x51 (store ?x49 17 31)))
 (let ((?x53 (store ?x51 18 30)))
 (let ((?x55 (store ?x53 19 31)))
 (let ((?x57 (store ?x55 20 30)))
 (let ((?x59 (store ?x57 21 31)))
 (let ((?x61 (store ?x59 22 31)))
 (let ((?x63 (store ?x61 23 28)))
 (let ((?x65 (store ?x63 24 31)))
 (let ((?x67 (store ?x65 25 30)))
 (let ((?x69 (store ?x67 26 31)))
 (let ((?x71 (store ?x69 27 30)))
 (let ((?x72 (store ?x71 28 31)))
 (let ((?x74 (store ?x72 29 31)))
 (let ((?x75 (store ?x74 30 30)))
 (let ((?x76 (store ?x75 31 31)))
 (let ((?x78 (store ?x76 32 30)))
 (let ((?x80 (store ?x78 33 31)))
 (let ((?x82 (store ?x80 34 31)))
 (let ((?x84 (store ?x82 35 28)))
 (let ((?x86 (store ?x84 36 31)))
 (let ((?x88 (store ?x86 37 30)))
 (let ((?x90 (store ?x88 38 31)))
 (let ((?x92 (store ?x90 39 30)))
 (let ((?x94 (store ?x92 40 31)))
 (let ((?x96 (store ?x94 41 31)))
 (let ((?x98 (store ?x96 42 30)))
 (let ((?x100 (store ?x98 43 31)))
 (let ((?x102 (store ?x100 44 30)))
 (let ((?x104 (store ?x102 45 31)))
 (let ((?x106 (store ?x104 46 31)))
 (let ((?x108 (store ?x106 47 29)))
 (let ((?x335 (ite (or (= 22802 (+ x_months 24003)) (= 25202 (+ x_months 24003))) 28 (select ?x108 ?x3224))))
 (let (($x3628 (<= 0 x_beta)))
 (and $x3628 (< x_beta ?x335)))))))))))))))))))))))))))))))))))))))))))))))))))))))
(assert
 (<= (- 1202) y_months))
(assert
 (>= 1209 y_months))
(assert
 (let ((?x4048 (mod y_months 48)))
 (let ((?x13 ((as const (Array Int Int)) 0)))
 (let ((?x15 (store ?x13 0 31)))
 (let ((?x18 (store ?x15 1 30)))
 (let ((?x20 (store ?x18 2 31)))
 (let ((?x22 (store ?x20 3 30)))
 (let ((?x24 (store ?x22 4 31)))
 (let ((?x26 (store ?x24 5 31)))
 (let ((?x28 (store ?x26 6 30)))
 (let ((?x30 (store ?x28 7 31)))
 (let ((?x32 (store ?x30 8 30)))
 (let ((?x34 (store ?x32 9 31)))
 (let ((?x36 (store ?x34 10 31)))
 (let ((?x39 (store ?x36 11 28)))
 (let ((?x41 (store ?x39 12 31)))
 (let ((?x43 (store ?x41 13 30)))
 (let ((?x45 (store ?x43 14 31)))
 (let ((?x47 (store ?x45 15 30)))
 (let ((?x49 (store ?x47 16 31)))
 (let ((?x51 (store ?x49 17 31)))
 (let ((?x53 (store ?x51 18 30)))
 (let ((?x55 (store ?x53 19 31)))
 (let ((?x57 (store ?x55 20 30)))
 (let ((?x59 (store ?x57 21 31)))
 (let ((?x61 (store ?x59 22 31)))
 (let ((?x63 (store ?x61 23 28)))
 (let ((?x65 (store ?x63 24 31)))
 (let ((?x67 (store ?x65 25 30)))
 (let ((?x69 (store ?x67 26 31)))
 (let ((?x71 (store ?x69 27 30)))
 (let ((?x72 (store ?x71 28 31)))
 (let ((?x74 (store ?x72 29 31)))
 (let ((?x75 (store ?x74 30 30)))
 (let ((?x76 (store ?x75 31 31)))
 (let ((?x78 (store ?x76 32 30)))
 (let ((?x80 (store ?x78 33 31)))
 (let ((?x82 (store ?x80 34 31)))
 (let ((?x84 (store ?x82 35 28)))
 (let ((?x86 (store ?x84 36 31)))
 (let ((?x88 (store ?x86 37 30)))
 (let ((?x90 (store ?x88 38 31)))
 (let ((?x92 (store ?x90 39 30)))
 (let ((?x94 (store ?x92 40 31)))
 (let ((?x96 (store ?x94 41 31)))
 (let ((?x98 (store ?x96 42 30)))
 (let ((?x100 (store ?x98 43 31)))
 (let ((?x102 (store ?x100 44 30)))
 (let ((?x104 (store ?x102 45 31)))
 (let ((?x106 (store ?x104 46 31)))
 (let ((?x108 (store ?x106 47 29)))
 (let ((?x3615 (select ?x108 ?x4048)))
 (let ((?x2237 (ite (or (= 22802 (+ y_months 24003)) (= 25202 (+ y_months 24003))) 28 ?x3615)))
 (let (($x1214 (<= 0 y_beta)))
 (and $x1214 (< y_beta ?x2237))))))))))))))))))))))))))))))))))))))))))))))))))))))))
(assert
 (and (= x_months (- (+ (* 2020 12) 1) 24003)) (= 30 x_beta)))
(assert
 (and (= y_months (- (+ (* 2019 12) 1) 24003)) (= 30 y_beta)))
(assert
 (let ((?x3426 (+ x_months 1)))
 (let ((?x4573 (mod ?x3426 48)))
 (let ((?x3032 (ite (> 22803 (+ ?x3426 24003)) 1 (ite (<= 25203 (+ ?x3426 24003)) (- 1) 0))))
 (let ((?x13 ((as const (Array Int Int)) 0)))
 (let ((?x15 (store ?x13 0 31)))
 (let ((?x18 (store ?x15 1 30)))
 (let ((?x20 (store ?x18 2 31)))
 (let ((?x22 (store ?x20 3 30)))
 (let ((?x24 (store ?x22 4 31)))
 (let ((?x26 (store ?x24 5 31)))
 (let ((?x28 (store ?x26 6 30)))
 (let ((?x30 (store ?x28 7 31)))
 (let ((?x32 (store ?x30 8 30)))
 (let ((?x34 (store ?x32 9 31)))
 (let ((?x36 (store ?x34 10 31)))
 (let ((?x39 (store ?x36 11 28)))
 (let ((?x41 (store ?x39 12 31)))
 (let ((?x43 (store ?x41 13 30)))
 (let ((?x45 (store ?x43 14 31)))
 (let ((?x47 (store ?x45 15 30)))
 (let ((?x49 (store ?x47 16 31)))
 (let ((?x51 (store ?x49 17 31)))
 (let ((?x53 (store ?x51 18 30)))
 (let ((?x55 (store ?x53 19 31)))
 (let ((?x57 (store ?x55 20 30)))
 (let ((?x59 (store ?x57 21 31)))
 (let ((?x61 (store ?x59 22 31)))
 (let ((?x63 (store ?x61 23 28)))
 (let ((?x65 (store ?x63 24 31)))
 (let ((?x67 (store ?x65 25 30)))
 (let ((?x69 (store ?x67 26 31)))
 (let ((?x71 (store ?x69 27 30)))
 (let ((?x72 (store ?x71 28 31)))
 (let ((?x74 (store ?x72 29 31)))
 (let ((?x75 (store ?x74 30 30)))
 (let ((?x76 (store ?x75 31 31)))
 (let ((?x78 (store ?x76 32 30)))
 (let ((?x80 (store ?x78 33 31)))
 (let ((?x82 (store ?x80 34 31)))
 (let ((?x84 (store ?x82 35 28)))
 (let ((?x86 (store ?x84 36 31)))
 (let ((?x88 (store ?x86 37 30)))
 (let ((?x90 (store ?x88 38 31)))
 (let ((?x92 (store ?x90 39 30)))
 (let ((?x94 (store ?x92 40 31)))
 (let ((?x96 (store ?x94 41 31)))
 (let ((?x98 (store ?x96 42 30)))
 (let ((?x100 (store ?x98 43 31)))
 (let ((?x102 (store ?x100 44 30)))
 (let ((?x104 (store ?x102 45 31)))
 (let ((?x106 (store ?x104 46 31)))
 (let ((?x108 (store ?x106 47 29)))
 (let ((?x3458 (ite (or (= 22802 (+ ?x3426 24003)) (= 25202 (+ ?x3426 24003))) 28 (select ?x108 ?x4573))))
 (let ((?x4503 (- ?x3458 1)))
 (let ((?x114 (store (store (store (store ?x13 0 0) 1 31) 2 61) 3 92)))
 (let ((?x122 (store (store (store (store ?x114 4 122) 5 153) 6 184) 7 214)))
 (let ((?x130 (store (store (store (store ?x122 8 245) 9 275) 10 306) 11 337)))
 (let ((?x138 (store (store (store (store ?x130 12 365) 13 396) 14 426) 15 457)))
 (let ((?x146 (store (store (store (store ?x138 16 487) 17 518) 18 549) 19 579)))
 (let ((?x154 (store (store (store (store ?x146 20 610) 21 640) 22 671) 23 702)))
 (let ((?x162 (store (store (store (store ?x154 24 730) 25 761) 26 791) 27 822)))
 (let ((?x170 (store (store (store (store ?x162 28 852) 29 883) 30 914) 31 944)))
 (let ((?x178 (store (store (store (store ?x170 32 975) 33 1005) 34 1036) 35 1067)))
 (let ((?x186 (store (store (store (store ?x178 36 1095) 37 1126) 38 1156) 39 1187)))
 (let ((?x194 (store (store (store (store ?x186 40 1217) 41 1248) 42 1279) 43 1309)))
 (let ((?x202 (store (store (store (store ?x194 44 1340) 45 1370) 46 1401) 47 1432)))
 (let ((?x3397 (+ (select ?x202 ?x4573) (ite (> 0 x_beta) 0 (ite (> x_beta ?x4503) ?x4503 x_beta)))))
 (let ((?x2601 (+ (+ ?x3397 ?x3032) 0)))
 (let ((?x2782 (+ ?x3426 (* (div ?x2601 1461) 48))))
 (let ((?x2689 (+ (+ ?x2782 (- 1 ?x4573)) 24003)))
 (let ((?x2366 (select ?x202 1)))
 (let ((?x1320 (mod ?x2601 1461)))
 (let (($x1731 (>= ?x1320 (+ ?x2366 (ite (> 22803 ?x2689) 1 (ite (<= 25203 ?x2689) (- 1) 0))))))
 (let ((?x3768 (ite (> 22803 (+ (+ ?x2782 (- 2 ?x4573)) 24003)) 1 (ite (<= 25203 (+ (+ ?x2782 (- 2 ?x4573)) 24003)) (- 1) 0))))
 (let ((?x2161 (select ?x202 2)))
 (let ((?x3205 (ite (> 22803 (+ (+ ?x2782 (- 3 ?x4573)) 24003)) 1 (ite (<= 25203 (+ (+ ?x2782 (- 3 ?x4573)) 24003)) (- 1) 0))))
 (let ((?x4298 (select ?x202 3)))
 (let ((?x1158 (ite (>= ?x1320 (+ ?x4298 ?x3205)) 3 (ite (>= ?x1320 (+ ?x2161 ?x3768)) 2 (ite $x1731 1 0)))))
 (let ((?x2643 (ite (> 22803 (+ (+ ?x2782 (- 4 ?x4573)) 24003)) 1 (ite (<= 25203 (+ (+ ?x2782 (- 4 ?x4573)) 24003)) (- 1) 0))))
 (let ((?x4667 (select ?x202 4)))
 (let ((?x4127 (ite (> 22803 (+ (+ ?x2782 (- 5 ?x4573)) 24003)) 1 (ite (<= 25203 (+ (+ ?x2782 (- 5 ?x4573)) 24003)) (- 1) 0))))
 (let ((?x337 (select ?x202 5)))
 (let ((?x4707 (ite (>= ?x1320 (+ ?x337 ?x4127)) 5 (ite (>= ?x1320 (+ ?x4667 ?x2643)) 4 ?x1158))))
 (let ((?x260 (ite (> 22803 (+ (+ ?x2782 (- 6 ?x4573)) 24003)) 1 (ite (<= 25203 (+ (+ ?x2782 (- 6 ?x4573)) 24003)) (- 1) 0))))
 (let ((?x3631 (select ?x202 6)))
 (let ((?x3952 (ite (> 22803 (+ (+ ?x2782 (- 7 ?x4573)) 24003)) 1 (ite (<= 25203 (+ (+ ?x2782 (- 7 ?x4573)) 24003)) (- 1) 0))))
 (let ((?x4265 (select ?x202 7)))
 (let ((?x2222 (ite (>= ?x1320 (+ ?x4265 ?x3952)) 7 (ite (>= ?x1320 (+ ?x3631 ?x260)) 6 ?x4707))))
 (let ((?x4372 (ite (> 22803 (+ (+ ?x2782 (- 8 ?x4573)) 24003)) 1 (ite (<= 25203 (+ (+ ?x2782 (- 8 ?x4573)) 24003)) (- 1) 0))))
 (let ((?x4178 (select ?x202 8)))
 (let ((?x3960 (ite (> 22803 (+ (+ ?x2782 (- 9 ?x4573)) 24003)) 1 (ite (<= 25203 (+ (+ ?x2782 (- 9 ?x4573)) 24003)) (- 1) 0))))
 (let ((?x3389 (select ?x202 9)))
 (let ((?x5068 (ite (>= ?x1320 (+ ?x3389 ?x3960)) 9 (ite (>= ?x1320 (+ ?x4178 ?x4372)) 8 ?x2222))))
 (let ((?x2676 (ite (> 22803 (+ (+ ?x2782 (- 10 ?x4573)) 24003)) 1 (ite (<= 25203 (+ (+ ?x2782 (- 10 ?x4573)) 24003)) (- 1) 0))))
 (let ((?x3893 (select ?x202 10)))
 (let ((?x1982 (ite (> 22803 (+ (+ ?x2782 (- 11 ?x4573)) 24003)) 1 (ite (<= 25203 (+ (+ ?x2782 (- 11 ?x4573)) 24003)) (- 1) 0))))
 (let ((?x4116 (select ?x202 11)))
 (let ((?x3583 (ite (>= ?x1320 (+ ?x4116 ?x1982)) 11 (ite (>= ?x1320 (+ ?x3893 ?x2676)) 10 ?x5068))))
 (let ((?x1262 (ite (> 22803 (+ (+ ?x2782 (- 12 ?x4573)) 24003)) 1 (ite (<= 25203 (+ (+ ?x2782 (- 12 ?x4573)) 24003)) (- 1) 0))))
 (let ((?x1191 (select ?x202 12)))
 (let ((?x390 (ite (> 22803 (+ (+ ?x2782 (- 13 ?x4573)) 24003)) 1 (ite (<= 25203 (+ (+ ?x2782 (- 13 ?x4573)) 24003)) (- 1) 0))))
 (let ((?x4887 (select ?x202 13)))
 (let ((?x2843 (ite (>= ?x1320 (+ ?x4887 ?x390)) 13 (ite (>= ?x1320 (+ ?x1191 ?x1262)) 12 ?x3583))))
 (let ((?x3476 (ite (> 22803 (+ (+ ?x2782 (- 14 ?x4573)) 24003)) 1 (ite (<= 25203 (+ (+ ?x2782 (- 14 ?x4573)) 24003)) (- 1) 0))))
 (let ((?x2748 (select ?x202 14)))
 (let ((?x4825 (ite (> 22803 (+ (+ ?x2782 (- 15 ?x4573)) 24003)) 1 (ite (<= 25203 (+ (+ ?x2782 (- 15 ?x4573)) 24003)) (- 1) 0))))
 (let ((?x1065 (select ?x202 15)))
 (let ((?x1056 (ite (>= ?x1320 (+ ?x1065 ?x4825)) 15 (ite (>= ?x1320 (+ ?x2748 ?x3476)) 14 ?x2843))))
 (let ((?x2310 (ite (> 22803 (+ (+ ?x2782 (- 16 ?x4573)) 24003)) 1 (ite (<= 25203 (+ (+ ?x2782 (- 16 ?x4573)) 24003)) (- 1) 0))))
 (let ((?x4246 (select ?x202 16)))
 (let ((?x398 (ite (> 22803 (+ (+ ?x2782 (- 17 ?x4573)) 24003)) 1 (ite (<= 25203 (+ (+ ?x2782 (- 17 ?x4573)) 24003)) (- 1) 0))))
 (let ((?x428 (select ?x202 17)))
 (let ((?x1612 (ite (>= ?x1320 (+ ?x428 ?x398)) 17 (ite (>= ?x1320 (+ ?x4246 ?x2310)) 16 ?x1056))))
 (let ((?x2251 (ite (> 22803 (+ (+ ?x2782 (- 18 ?x4573)) 24003)) 1 (ite (<= 25203 (+ (+ ?x2782 (- 18 ?x4573)) 24003)) (- 1) 0))))
 (let ((?x3716 (select ?x202 18)))
 (let ((?x3773 (ite (> 22803 (+ (+ ?x2782 (- 19 ?x4573)) 24003)) 1 (ite (<= 25203 (+ (+ ?x2782 (- 19 ?x4573)) 24003)) (- 1) 0))))
 (let ((?x3672 (select ?x202 19)))
 (let ((?x2740 (ite (>= ?x1320 (+ ?x3672 ?x3773)) 19 (ite (>= ?x1320 (+ ?x3716 ?x2251)) 18 ?x1612))))
 (let ((?x3856 (ite (> 22803 (+ (+ ?x2782 (- 20 ?x4573)) 24003)) 1 (ite (<= 25203 (+ (+ ?x2782 (- 20 ?x4573)) 24003)) (- 1) 0))))
 (let ((?x561 (select ?x202 20)))
 (let ((?x1909 (ite (> 22803 (+ (+ ?x2782 (- 21 ?x4573)) 24003)) 1 (ite (<= 25203 (+ (+ ?x2782 (- 21 ?x4573)) 24003)) (- 1) 0))))
 (let ((?x2989 (select ?x202 21)))
 (let ((?x4300 (ite (>= ?x1320 (+ ?x2989 ?x1909)) 21 (ite (>= ?x1320 (+ ?x561 ?x3856)) 20 ?x2740))))
 (let ((?x5486 (ite (> 22803 (+ (+ ?x2782 (- 22 ?x4573)) 24003)) 1 (ite (<= 25203 (+ (+ ?x2782 (- 22 ?x4573)) 24003)) (- 1) 0))))
 (let ((?x5432 (select ?x202 22)))
 (let ((?x2321 (ite (> 22803 (+ (+ ?x2782 (- 23 ?x4573)) 24003)) 1 (ite (<= 25203 (+ (+ ?x2782 (- 23 ?x4573)) 24003)) (- 1) 0))))
 (let ((?x784 (select ?x202 23)))
 (let ((?x1410 (ite (>= ?x1320 (+ ?x784 ?x2321)) 23 (ite (>= ?x1320 (+ ?x5432 ?x5486)) 22 ?x4300))))
 (let ((?x3860 (ite (> 22803 (+ (+ ?x2782 (- 24 ?x4573)) 24003)) 1 (ite (<= 25203 (+ (+ ?x2782 (- 24 ?x4573)) 24003)) (- 1) 0))))
 (let ((?x3719 (select ?x202 24)))
 (let ((?x4406 (ite (> 22803 (+ (+ ?x2782 (- 25 ?x4573)) 24003)) 1 (ite (<= 25203 (+ (+ ?x2782 (- 25 ?x4573)) 24003)) (- 1) 0))))
 (let ((?x4790 (select ?x202 25)))
 (let ((?x1602 (ite (>= ?x1320 (+ ?x4790 ?x4406)) 25 (ite (>= ?x1320 (+ ?x3719 ?x3860)) 24 ?x1410))))
 (let ((?x221 (ite (> 22803 (+ (+ ?x2782 (- 26 ?x4573)) 24003)) 1 (ite (<= 25203 (+ (+ ?x2782 (- 26 ?x4573)) 24003)) (- 1) 0))))
 (let ((?x3642 (select ?x202 26)))
 (let ((?x4901 (ite (> 22803 (+ (+ ?x2782 (- 27 ?x4573)) 24003)) 1 (ite (<= 25203 (+ (+ ?x2782 (- 27 ?x4573)) 24003)) (- 1) 0))))
 (let ((?x5198 (select ?x202 27)))
 (let ((?x5382 (ite (>= ?x1320 (+ ?x5198 ?x4901)) 27 (ite (>= ?x1320 (+ ?x3642 ?x221)) 26 ?x1602))))
 (let ((?x5275 (ite (> 22803 (+ (+ ?x2782 (- 28 ?x4573)) 24003)) 1 (ite (<= 25203 (+ (+ ?x2782 (- 28 ?x4573)) 24003)) (- 1) 0))))
 (let ((?x2126 (select ?x202 28)))
 (let ((?x4884 (ite (> 22803 (+ (+ ?x2782 (- 29 ?x4573)) 24003)) 1 (ite (<= 25203 (+ (+ ?x2782 (- 29 ?x4573)) 24003)) (- 1) 0))))
 (let ((?x4977 (select ?x202 29)))
 (let ((?x392 (ite (>= ?x1320 (+ ?x4977 ?x4884)) 29 (ite (>= ?x1320 (+ ?x2126 ?x5275)) 28 ?x5382))))
 (let ((?x5662 (ite (> 22803 (+ (+ ?x2782 (- 30 ?x4573)) 24003)) 1 (ite (<= 25203 (+ (+ ?x2782 (- 30 ?x4573)) 24003)) (- 1) 0))))
 (let ((?x5679 (select ?x202 30)))
 (let ((?x5699 (ite (> 22803 (+ (+ ?x2782 (- 31 ?x4573)) 24003)) 1 (ite (<= 25203 (+ (+ ?x2782 (- 31 ?x4573)) 24003)) (- 1) 0))))
 (let ((?x5689 (select ?x202 31)))
 (let ((?x5315 (ite (>= ?x1320 (+ ?x5689 ?x5699)) 31 (ite (>= ?x1320 (+ ?x5679 ?x5662)) 30 ?x392))))
 (let ((?x4086 (ite (> 22803 (+ (+ ?x2782 (- 32 ?x4573)) 24003)) 1 (ite (<= 25203 (+ (+ ?x2782 (- 32 ?x4573)) 24003)) (- 1) 0))))
 (let ((?x5363 (select ?x202 32)))
 (let ((?x2790 (ite (> 22803 (+ (+ ?x2782 (- 33 ?x4573)) 24003)) 1 (ite (<= 25203 (+ (+ ?x2782 (- 33 ?x4573)) 24003)) (- 1) 0))))
 (let ((?x903 (select ?x202 33)))
 (let ((?x1646 (ite (>= ?x1320 (+ ?x903 ?x2790)) 33 (ite (>= ?x1320 (+ ?x5363 ?x4086)) 32 ?x5315))))
 (let ((?x3314 (ite (> 22803 (+ (+ ?x2782 (- 34 ?x4573)) 24003)) 1 (ite (<= 25203 (+ (+ ?x2782 (- 34 ?x4573)) 24003)) (- 1) 0))))
 (let ((?x1628 (select ?x202 34)))
 (let ((?x2097 (ite (> 22803 (+ (+ ?x2782 (- 35 ?x4573)) 24003)) 1 (ite (<= 25203 (+ (+ ?x2782 (- 35 ?x4573)) 24003)) (- 1) 0))))
 (let ((?x4075 (select ?x202 35)))
 (let ((?x1277 (ite (>= ?x1320 (+ ?x4075 ?x2097)) 35 (ite (>= ?x1320 (+ ?x1628 ?x3314)) 34 ?x1646))))
 (let ((?x4203 (ite (> 22803 (+ (+ ?x2782 (- 36 ?x4573)) 24003)) 1 (ite (<= 25203 (+ (+ ?x2782 (- 36 ?x4573)) 24003)) (- 1) 0))))
 (let ((?x1505 (select ?x202 36)))
 (let ((?x1583 (ite (> 22803 (+ (+ ?x2782 (- 37 ?x4573)) 24003)) 1 (ite (<= 25203 (+ (+ ?x2782 (- 37 ?x4573)) 24003)) (- 1) 0))))
 (let ((?x2118 (select ?x202 37)))
 (let ((?x4811 (ite (>= ?x1320 (+ ?x2118 ?x1583)) 37 (ite (>= ?x1320 (+ ?x1505 ?x4203)) 36 ?x1277))))
 (let ((?x2684 (ite (> 22803 (+ (+ ?x2782 (- 38 ?x4573)) 24003)) 1 (ite (<= 25203 (+ (+ ?x2782 (- 38 ?x4573)) 24003)) (- 1) 0))))
 (let ((?x2172 (select ?x202 38)))
 (let ((?x1695 (ite (> 22803 (+ (+ ?x2782 (- 39 ?x4573)) 24003)) 1 (ite (<= 25203 (+ (+ ?x2782 (- 39 ?x4573)) 24003)) (- 1) 0))))
 (let ((?x2485 (select ?x202 39)))
 (let ((?x2444 (ite (>= ?x1320 (+ ?x2485 ?x1695)) 39 (ite (>= ?x1320 (+ ?x2172 ?x2684)) 38 ?x4811))))
 (let ((?x4135 (ite (> 22803 (+ (+ ?x2782 (- 40 ?x4573)) 24003)) 1 (ite (<= 25203 (+ (+ ?x2782 (- 40 ?x4573)) 24003)) (- 1) 0))))
 (let ((?x1654 (select ?x202 40)))
 (let ((?x4810 (ite (> 22803 (+ (+ ?x2782 (- 41 ?x4573)) 24003)) 1 (ite (<= 25203 (+ (+ ?x2782 (- 41 ?x4573)) 24003)) (- 1) 0))))
 (let ((?x2681 (select ?x202 41)))
 (let ((?x2898 (ite (>= ?x1320 (+ ?x2681 ?x4810)) 41 (ite (>= ?x1320 (+ ?x1654 ?x4135)) 40 ?x2444))))
 (let ((?x2387 (ite (> 22803 (+ (+ ?x2782 (- 42 ?x4573)) 24003)) 1 (ite (<= 25203 (+ (+ ?x2782 (- 42 ?x4573)) 24003)) (- 1) 0))))
 (let ((?x5156 (select ?x202 42)))
 (let ((?x1917 (ite (> 22803 (+ (+ ?x2782 (- 43 ?x4573)) 24003)) 1 (ite (<= 25203 (+ (+ ?x2782 (- 43 ?x4573)) 24003)) (- 1) 0))))
 (let ((?x3645 (select ?x202 43)))
 (let ((?x4200 (ite (>= ?x1320 (+ ?x3645 ?x1917)) 43 (ite (>= ?x1320 (+ ?x5156 ?x2387)) 42 ?x2898))))
 (let ((?x4422 (ite (> 22803 (+ (+ ?x2782 (- 44 ?x4573)) 24003)) 1 (ite (<= 25203 (+ (+ ?x2782 (- 44 ?x4573)) 24003)) (- 1) 0))))
 (let ((?x3796 (select ?x202 44)))
 (let ((?x2552 (ite (> 22803 (+ (+ ?x2782 (- 45 ?x4573)) 24003)) 1 (ite (<= 25203 (+ (+ ?x2782 (- 45 ?x4573)) 24003)) (- 1) 0))))
 (let ((?x3696 (select ?x202 45)))
 (let ((?x2081 (ite (>= ?x1320 (+ ?x3696 ?x2552)) 45 (ite (>= ?x1320 (+ ?x3796 ?x4422)) 44 ?x4200))))
 (let ((?x437 (ite (> 22803 (+ (+ ?x2782 (- 46 ?x4573)) 24003)) 1 (ite (<= 25203 (+ (+ ?x2782 (- 46 ?x4573)) 24003)) (- 1) 0))))
 (let ((?x1189 (select ?x202 46)))
 (let ((?x2322 (ite (> 22803 (+ (+ ?x2782 (- 47 ?x4573)) 24003)) 1 (ite (<= 25203 (+ (+ ?x2782 (- 47 ?x4573)) 24003)) (- 1) 0))))
 (let ((?x2332 (select ?x202 47)))
 (let ((?x1360 (ite (>= ?x1320 (+ ?x2332 ?x2322)) 47 (ite (>= ?x1320 (+ ?x1189 ?x437)) 46 ?x2081))))
 (let ((?x3783 (+ ?x2782 (- ?x1360 ?x4573))))
 (let ((?x2285 (+ ?x3783 24003)))
 (let ((?x5640 (+ (select ?x202 ?x1360) (ite (> 22803 ?x2285) 1 (ite (<= 25203 ?x2285) (- 1) 0)))))
 (let ((?x2422 (- ?x1320 ?x5640)))
 (let ((?x5523 (ite (or (= 22802 ?x2285) (= 25202 ?x2285)) 28 (select ?x108 ?x1360))))
 (let (($x1536 (= 28 (ite (= 1 (ite (>= ?x2422 ?x5523) 1 0)) (- ?x2422 ?x5523) ?x2422))))
 (let (($x5285 (= (+ ?x3783 (ite (>= ?x2422 ?x5523) 1 0)) (- (+ (* 2020 12) 2) 24003))))
 (and $x5285 $x1536)))))))))))))))))))))))))))))))))))))))))))))))))))))))))))))))))))))))))))))))))))))))))))))))))))))))))))))))))))))))))))))))))))))))))))))))))))))))))))))))))))))))))))))))))))))))))))))))))))))
(assert
 (let ((?x4985 (+ y_months 1)))
(let ((?x1956 (mod ?x4985 48)))
(let ((?x5393 (ite (> 22803 (+ ?x4985 24003)) 1 (ite (<= 25203 (+ ?x4985 24003)) (- 1) 0))))
(let ((?x13 ((as const (Array Int Int)) 0)))
(let ((?x15 (store ?x13 0 31)))
(let ((?x18 (store ?x15 1 30)))
(let ((?x20 (store ?x18 2 31)))
(let ((?x22 (store ?x20 3 30)))
(let ((?x24 (store ?x22 4 31)))
(let ((?x26 (store ?x24 5 31)))
(let ((?x28 (store ?x26 6 30)))
(let ((?x30 (store ?x28 7 31)))
(let ((?x32 (store ?x30 8 30)))
(let ((?x34 (store ?x32 9 31)))
(let ((?x36 (store ?x34 10 31)))
(let ((?x39 (store ?x36 11 28)))
(let ((?x41 (store ?x39 12 31)))
(let ((?x43 (store ?x41 13 30)))
(let ((?x45 (store ?x43 14 31)))
(let ((?x47 (store ?x45 15 30)))
(let ((?x49 (store ?x47 16 31)))
(let ((?x51 (store ?x49 17 31)))
(let ((?x53 (store ?x51 18 30)))
(let ((?x55 (store ?x53 19 31)))
(let ((?x57 (store ?x55 20 30)))
(let ((?x59 (store ?x57 21 31)))
(let ((?x61 (store ?x59 22 31)))
(let ((?x63 (store ?x61 23 28)))
(let ((?x65 (store ?x63 24 31)))
(let ((?x67 (store ?x65 25 30)))
(let ((?x69 (store ?x67 26 31)))
(let ((?x71 (store ?x69 27 30)))
(let ((?x72 (store ?x71 28 31)))
(let ((?x74 (store ?x72 29 31)))
(let ((?x75 (store ?x74 30 30)))
(let ((?x76 (store ?x75 31 31)))
(let ((?x78 (store ?x76 32 30)))
(let ((?x80 (store ?x78 33 31)))
(let ((?x82 (store ?x80 34 31)))
(let ((?x84 (store ?x82 35 28)))
(let ((?x86 (store ?x84 36 31)))
(let ((?x88 (store ?x86 37 30)))
(let ((?x90 (store ?x88 38 31)))
(let ((?x92 (store ?x90 39 30)))
(let ((?x94 (store ?x92 40 31)))
(let ((?x96 (store ?x94 41 31)))
(let ((?x98 (store ?x96 42 30)))
(let ((?x100 (store ?x98 43 31)))
(let ((?x102 (store ?x100 44 30)))
(let ((?x104 (store ?x102 45 31)))
(let ((?x106 (store ?x104 46 31)))
(let ((?x108 (store ?x106 47 29)))
(let ((?x4257 (ite (or (= 22802 (+ ?x4985 24003)) (= 25202 (+ ?x4985 24003))) 28 (select ?x108 ?x1956))))
(let ((?x1919 (- ?x4257 1)))
(let ((?x114 (store (store (store (store ?x13 0 0) 1 31) 2 61) 3 92)))
(let ((?x122 (store (store (store (store ?x114 4 122) 5 153) 6 184) 7 214)))
(let ((?x130 (store (store (store (store ?x122 8 245) 9 275) 10 306) 11 337)))
(let ((?x138 (store (store (store (store ?x130 12 365) 13 396) 14 426) 15 457)))
(let ((?x146 (store (store (store (store ?x138 16 487) 17 518) 18 549) 19 579)))
(let ((?x154 (store (store (store (store ?x146 20 610) 21 640) 22 671) 23 702)))
(let ((?x162 (store (store (store (store ?x154 24 730) 25 761) 26 791) 27 822)))
(let ((?x170 (store (store (store (store ?x162 28 852) 29 883) 30 914) 31 944)))
(let ((?x178 (store (store (store (store ?x170 32 975) 33 1005) 34 1036) 35 1067)))
(let ((?x186 (store (store (store (store ?x178 36 1095) 37 1126) 38 1156) 39 1187)))
(let ((?x194 (store (store (store (store ?x186 40 1217) 41 1248) 42 1279) 43 1309)))
(let ((?x202 (store (store (store (store ?x194 44 1340) 45 1370) 46 1401) 47 1432)))
(let ((?x1721 (+ (select ?x202 ?x1956) (ite (> 0 y_beta) 0 (ite (> y_beta ?x1919) ?x1919 y_beta)))))
(let ((?x5470 (+ (+ ?x1721 ?x5393) 0)))
(let ((?x3013 (+ ?x4985 (* (div ?x5470 1461) 48))))
(let ((?x3061 (+ (+ ?x3013 (- 1 ?x1956)) 24003)))
(let ((?x2366 (select ?x202 1)))
(let ((?x616 (mod ?x5470 1461)))
(let (($x4891 (>= ?x616 (+ ?x2366 (ite (> 22803 ?x3061) 1 (ite (<= 25203 ?x3061) (- 1) 0))))))
(let ((?x2577 (ite (> 22803 (+ (+ ?x3013 (- 2 ?x1956)) 24003)) 1 (ite (<= 25203 (+ (+ ?x3013 (- 2 ?x1956)) 24003)) (- 1) 0))))
(let ((?x2161 (select ?x202 2)))
(let ((?x976 (ite (> 22803 (+ (+ ?x3013 (- 3 ?x1956)) 24003)) 1 (ite (<= 25203 (+ (+ ?x3013 (- 3 ?x1956)) 24003)) (- 1) 0))))
(let ((?x4298 (select ?x202 3)))
(let ((?x5474 (ite (>= ?x616 (+ ?x4298 ?x976)) 3 (ite (>= ?x616 (+ ?x2161 ?x2577)) 2 (ite $x4891 1 0)))))
(let ((?x4258 (ite (> 22803 (+ (+ ?x3013 (- 4 ?x1956)) 24003)) 1 (ite (<= 25203 (+ (+ ?x3013 (- 4 ?x1956)) 24003)) (- 1) 0))))
(let ((?x4667 (select ?x202 4)))
(let ((?x663 (ite (> 22803 (+ (+ ?x3013 (- 5 ?x1956)) 24003)) 1 (ite (<= 25203 (+ (+ ?x3013 (- 5 ?x1956)) 24003)) (- 1) 0))))
(let ((?x337 (select ?x202 5)))
(let ((?x5041 (ite (>= ?x616 (+ ?x337 ?x663)) 5 (ite (>= ?x616 (+ ?x4667 ?x4258)) 4 ?x5474))))
(let ((?x5109 (ite (> 22803 (+ (+ ?x3013 (- 6 ?x1956)) 24003)) 1 (ite (<= 25203 (+ (+ ?x3013 (- 6 ?x1956)) 24003)) (- 1) 0))))
(let ((?x3631 (select ?x202 6)))
(let ((?x4587 (ite (> 22803 (+ (+ ?x3013 (- 7 ?x1956)) 24003)) 1 (ite (<= 25203 (+ (+ ?x3013 (- 7 ?x1956)) 24003)) (- 1) 0))))
(let ((?x4265 (select ?x202 7)))
(let ((?x4590 (ite (>= ?x616 (+ ?x4265 ?x4587)) 7 (ite (>= ?x616 (+ ?x3631 ?x5109)) 6 ?x5041))))
(let ((?x796 (ite (> 22803 (+ (+ ?x3013 (- 8 ?x1956)) 24003)) 1 (ite (<= 25203 (+ (+ ?x3013 (- 8 ?x1956)) 24003)) (- 1) 0))))
(let ((?x4178 (select ?x202 8)))
(let ((?x5235 (ite (> 22803 (+ (+ ?x3013 (- 9 ?x1956)) 24003)) 1 (ite (<= 25203 (+ (+ ?x3013 (- 9 ?x1956)) 24003)) (- 1) 0))))
(let ((?x3389 (select ?x202 9)))
(let ((?x2216 (ite (>= ?x616 (+ ?x3389 ?x5235)) 9 (ite (>= ?x616 (+ ?x4178 ?x796)) 8 ?x4590))))
(let ((?x1828 (ite (> 22803 (+ (+ ?x3013 (- 10 ?x1956)) 24003)) 1 (ite (<= 25203 (+ (+ ?x3013 (- 10 ?x1956)) 24003)) (- 1) 0))))
(let ((?x3893 (select ?x202 10)))
(let ((?x3965 (ite (> 22803 (+ (+ ?x3013 (- 11 ?x1956)) 24003)) 1 (ite (<= 25203 (+ (+ ?x3013 (- 11 ?x1956)) 24003)) (- 1) 0))))
(let ((?x4116 (select ?x202 11)))
(let ((?x1877 (ite (>= ?x616 (+ ?x4116 ?x3965)) 11 (ite (>= ?x616 (+ ?x3893 ?x1828)) 10 ?x2216))))
(let ((?x3907 (ite (> 22803 (+ (+ ?x3013 (- 12 ?x1956)) 24003)) 1 (ite (<= 25203 (+ (+ ?x3013 (- 12 ?x1956)) 24003)) (- 1) 0))))
(let ((?x1191 (select ?x202 12)))
(let ((?x652 (ite (> 22803 (+ (+ ?x3013 (- 13 ?x1956)) 24003)) 1 (ite (<= 25203 (+ (+ ?x3013 (- 13 ?x1956)) 24003)) (- 1) 0))))
(let ((?x4887 (select ?x202 13)))
(let ((?x1276 (ite (>= ?x616 (+ ?x4887 ?x652)) 13 (ite (>= ?x616 (+ ?x1191 ?x3907)) 12 ?x1877))))
(let ((?x5107 (ite (> 22803 (+ (+ ?x3013 (- 14 ?x1956)) 24003)) 1 (ite (<= 25203 (+ (+ ?x3013 (- 14 ?x1956)) 24003)) (- 1) 0))))
(let ((?x2748 (select ?x202 14)))
(let ((?x5200 (ite (> 22803 (+ (+ ?x3013 (- 15 ?x1956)) 24003)) 1 (ite (<= 25203 (+ (+ ?x3013 (- 15 ?x1956)) 24003)) (- 1) 0))))
(let ((?x1065 (select ?x202 15)))
(let ((?x4959 (ite (>= ?x616 (+ ?x1065 ?x5200)) 15 (ite (>= ?x616 (+ ?x2748 ?x5107)) 14 ?x1276))))
(let ((?x4995 (ite (> 22803 (+ (+ ?x3013 (- 16 ?x1956)) 24003)) 1 (ite (<= 25203 (+ (+ ?x3013 (- 16 ?x1956)) 24003)) (- 1) 0))))
(let ((?x4246 (select ?x202 16)))
(let ((?x3247 (ite (> 22803 (+ (+ ?x3013 (- 17 ?x1956)) 24003)) 1 (ite (<= 25203 (+ (+ ?x3013 (- 17 ?x1956)) 24003)) (- 1) 0))))
(let ((?x428 (select ?x202 17)))
(let ((?x4371 (ite (>= ?x616 (+ ?x428 ?x3247)) 17 (ite (>= ?x616 (+ ?x4246 ?x4995)) 16 ?x4959))))
(let ((?x5231 (ite (> 22803 (+ (+ ?x3013 (- 18 ?x1956)) 24003)) 1 (ite (<= 25203 (+ (+ ?x3013 (- 18 ?x1956)) 24003)) (- 1) 0))))
(let ((?x3716 (select ?x202 18)))
(let ((?x2475 (ite (> 22803 (+ (+ ?x3013 (- 19 ?x1956)) 24003)) 1 (ite (<= 25203 (+ (+ ?x3013 (- 19 ?x1956)) 24003)) (- 1) 0))))
(let ((?x3672 (select ?x202 19)))
(let ((?x5458 (ite (>= ?x616 (+ ?x3672 ?x2475)) 19 (ite (>= ?x616 (+ ?x3716 ?x5231)) 18 ?x4371))))
(let ((?x3612 (ite (> 22803 (+ (+ ?x3013 (- 20 ?x1956)) 24003)) 1 (ite (<= 25203 (+ (+ ?x3013 (- 20 ?x1956)) 24003)) (- 1) 0))))
(let ((?x561 (select ?x202 20)))
(let ((?x5313 (ite (> 22803 (+ (+ ?x3013 (- 21 ?x1956)) 24003)) 1 (ite (<= 25203 (+ (+ ?x3013 (- 21 ?x1956)) 24003)) (- 1) 0))))
(let ((?x2989 (select ?x202 21)))
(let ((?x5588 (ite (>= ?x616 (+ ?x2989 ?x5313)) 21 (ite (>= ?x616 (+ ?x561 ?x3612)) 20 ?x5458))))
(let ((?x4648 (ite (> 22803 (+ (+ ?x3013 (- 22 ?x1956)) 24003)) 1 (ite (<= 25203 (+ (+ ?x3013 (- 22 ?x1956)) 24003)) (- 1) 0))))
(let ((?x5432 (select ?x202 22)))
(let ((?x5684 (ite (> 22803 (+ (+ ?x3013 (- 23 ?x1956)) 24003)) 1 (ite (<= 25203 (+ (+ ?x3013 (- 23 ?x1956)) 24003)) (- 1) 0))))
(let ((?x784 (select ?x202 23)))
(let ((?x1298 (ite (>= ?x616 (+ ?x784 ?x5684)) 23 (ite (>= ?x616 (+ ?x5432 ?x4648)) 22 ?x5588))))
(let ((?x4673 (ite (> 22803 (+ (+ ?x3013 (- 24 ?x1956)) 24003)) 1 (ite (<= 25203 (+ (+ ?x3013 (- 24 ?x1956)) 24003)) (- 1) 0))))
(let ((?x3719 (select ?x202 24)))
(let ((?x5249 (ite (> 22803 (+ (+ ?x3013 (- 25 ?x1956)) 24003)) 1 (ite (<= 25203 (+ (+ ?x3013 (- 25 ?x1956)) 24003)) (- 1) 0))))
(let ((?x4790 (select ?x202 25)))
(let ((?x3878 (ite (>= ?x616 (+ ?x4790 ?x5249)) 25 (ite (>= ?x616 (+ ?x3719 ?x4673)) 24 ?x1298))))
(let ((?x1434 (ite (> 22803 (+ (+ ?x3013 (- 26 ?x1956)) 24003)) 1 (ite (<= 25203 (+ (+ ?x3013 (- 26 ?x1956)) 24003)) (- 1) 0))))
(let ((?x3642 (select ?x202 26)))
(let ((?x4982 (ite (> 22803 (+ (+ ?x3013 (- 27 ?x1956)) 24003)) 1 (ite (<= 25203 (+ (+ ?x3013 (- 27 ?x1956)) 24003)) (- 1) 0))))
(let ((?x5198 (select ?x202 27)))
(let ((?x3435 (ite (>= ?x616 (+ ?x5198 ?x4982)) 27 (ite (>= ?x616 (+ ?x3642 ?x1434)) 26 ?x3878))))
(let ((?x5422 (ite (> 22803 (+ (+ ?x3013 (- 28 ?x1956)) 24003)) 1 (ite (<= 25203 (+ (+ ?x3013 (- 28 ?x1956)) 24003)) (- 1) 0))))
(let ((?x2126 (select ?x202 28)))
(let ((?x5729 (ite (> 22803 (+ (+ ?x3013 (- 29 ?x1956)) 24003)) 1 (ite (<= 25203 (+ (+ ?x3013 (- 29 ?x1956)) 24003)) (- 1) 0))))
(let ((?x4977 (select ?x202 29)))
(let ((?x5135 (ite (>= ?x616 (+ ?x4977 ?x5729)) 29 (ite (>= ?x616 (+ ?x2126 ?x5422)) 28 ?x3435))))
(let ((?x4845 (ite (> 22803 (+ (+ ?x3013 (- 30 ?x1956)) 24003)) 1 (ite (<= 25203 (+ (+ ?x3013 (- 30 ?x1956)) 24003)) (- 1) 0))))
(let ((?x5679 (select ?x202 30)))
(let ((?x5663 (ite (> 22803 (+ (+ ?x3013 (- 31 ?x1956)) 24003)) 1 (ite (<= 25203 (+ (+ ?x3013 (- 31 ?x1956)) 24003)) (- 1) 0))))
(let ((?x5689 (select ?x202 31)))
(let ((?x813 (ite (>= ?x616 (+ ?x5689 ?x5663)) 31 (ite (>= ?x616 (+ ?x5679 ?x4845)) 30 ?x5135))))
(let ((?x5201 (ite (> 22803 (+ (+ ?x3013 (- 32 ?x1956)) 24003)) 1 (ite (<= 25203 (+ (+ ?x3013 (- 32 ?x1956)) 24003)) (- 1) 0))))
(let ((?x5363 (select ?x202 32)))
(let ((?x4365 (ite (> 22803 (+ (+ ?x3013 (- 33 ?x1956)) 24003)) 1 (ite (<= 25203 (+ (+ ?x3013 (- 33 ?x1956)) 24003)) (- 1) 0))))
(let ((?x903 (select ?x202 33)))
(let ((?x4664 (ite (>= ?x616 (+ ?x903 ?x4365)) 33 (ite (>= ?x616 (+ ?x5363 ?x5201)) 32 ?x813))))
(let ((?x5149 (ite (> 22803 (+ (+ ?x3013 (- 34 ?x1956)) 24003)) 1 (ite (<= 25203 (+ (+ ?x3013 (- 34 ?x1956)) 24003)) (- 1) 0))))
(let ((?x1628 (select ?x202 34)))
(let ((?x4564 (ite (> 22803 (+ (+ ?x3013 (- 35 ?x1956)) 24003)) 1 (ite (<= 25203 (+ (+ ?x3013 (- 35 ?x1956)) 24003)) (- 1) 0))))
(let ((?x4075 (select ?x202 35)))
(let ((?x975 (ite (>= ?x616 (+ ?x4075 ?x4564)) 35 (ite (>= ?x616 (+ ?x1628 ?x5149)) 34 ?x4664))))
(let ((?x5366 (ite (> 22803 (+ (+ ?x3013 (- 36 ?x1956)) 24003)) 1 (ite (<= 25203 (+ (+ ?x3013 (- 36 ?x1956)) 24003)) (- 1) 0))))
(let ((?x1505 (select ?x202 36)))
(let ((?x3799 (ite (> 22803 (+ (+ ?x3013 (- 37 ?x1956)) 24003)) 1 (ite (<= 25203 (+ (+ ?x3013 (- 37 ?x1956)) 24003)) (- 1) 0))))
(let ((?x2118 (select ?x202 37)))
(let ((?x1035 (ite (>= ?x616 (+ ?x2118 ?x3799)) 37 (ite (>= ?x616 (+ ?x1505 ?x5366)) 36 ?x975))))
(let ((?x5069 (ite (> 22803 (+ (+ ?x3013 (- 38 ?x1956)) 24003)) 1 (ite (<= 25203 (+ (+ ?x3013 (- 38 ?x1956)) 24003)) (- 1) 0))))
(let ((?x2172 (select ?x202 38)))
(let ((?x2513 (ite (> 22803 (+ (+ ?x3013 (- 39 ?x1956)) 24003)) 1 (ite (<= 25203 (+ (+ ?x3013 (- 39 ?x1956)) 24003)) (- 1) 0))))
(let ((?x2485 (select ?x202 39)))
(let ((?x983 (ite (>= ?x616 (+ ?x2485 ?x2513)) 39 (ite (>= ?x616 (+ ?x2172 ?x5069)) 38 ?x1035))))
(let ((?x1330 (ite (> 22803 (+ (+ ?x3013 (- 40 ?x1956)) 24003)) 1 (ite (<= 25203 (+ (+ ?x3013 (- 40 ?x1956)) 24003)) (- 1) 0))))
(let ((?x1654 (select ?x202 40)))
(let ((?x4871 (ite (> 22803 (+ (+ ?x3013 (- 41 ?x1956)) 24003)) 1 (ite (<= 25203 (+ (+ ?x3013 (- 41 ?x1956)) 24003)) (- 1) 0))))
(let ((?x2681 (select ?x202 41)))
(let ((?x3879 (ite (>= ?x616 (+ ?x2681 ?x4871)) 41 (ite (>= ?x616 (+ ?x1654 ?x1330)) 40 ?x983))))
(let ((?x4586 (ite (> 22803 (+ (+ ?x3013 (- 42 ?x1956)) 24003)) 1 (ite (<= 25203 (+ (+ ?x3013 (- 42 ?x1956)) 24003)) (- 1) 0))))
(let ((?x5156 (select ?x202 42)))
(let ((?x2881 (ite (> 22803 (+ (+ ?x3013 (- 43 ?x1956)) 24003)) 1 (ite (<= 25203 (+ (+ ?x3013 (- 43 ?x1956)) 24003)) (- 1) 0))))
(let ((?x3645 (select ?x202 43)))
(let ((?x4020 (ite (>= ?x616 (+ ?x3645 ?x2881)) 43 (ite (>= ?x616 (+ ?x5156 ?x4586)) 42 ?x3879))))
(let ((?x5158 (ite (> 22803 (+ (+ ?x3013 (- 44 ?x1956)) 24003)) 1 (ite (<= 25203 (+ (+ ?x3013 (- 44 ?x1956)) 24003)) (- 1) 0))))
(let ((?x3796 (select ?x202 44)))
(let ((?x4560 (ite (> 22803 (+ (+ ?x3013 (- 45 ?x1956)) 24003)) 1 (ite (<= 25203 (+ (+ ?x3013 (- 45 ?x1956)) 24003)) (- 1) 0))))
(let ((?x3696 (select ?x202 45)))
(let ((?x4311 (ite (>= ?x616 (+ ?x3696 ?x4560)) 45 (ite (>= ?x616 (+ ?x3796 ?x5158)) 44 ?x4020))))
(let ((?x2401 (ite (> 22803 (+ (+ ?x3013 (- 46 ?x1956)) 24003)) 1 (ite (<= 25203 (+ (+ ?x3013 (- 46 ?x1956)) 24003)) (- 1) 0))))
(let ((?x1189 (select ?x202 46)))
(let ((?x2297 (ite (> 22803 (+ (+ ?x3013 (- 47 ?x1956)) 24003)) 1 (ite (<= 25203 (+ (+ ?x3013 (- 47 ?x1956)) 24003)) (- 1) 0))))
(let ((?x2332 (select ?x202 47)))
(let ((?x4930 (ite (>= ?x616 (+ ?x2332 ?x2297)) 47 (ite (>= ?x616 (+ ?x1189 ?x2401)) 46 ?x4311))))
(let ((?x2205 (+ ?x3013 (- ?x4930 ?x1956))))
(let ((?x1373 (+ ?x2205 24003)))
(let ((?x5294 (+ (select ?x202 ?x4930) (ite (> 22803 ?x1373) 1 (ite (<= 25203 ?x1373) (- 1) 0)))))
(let ((?x4782 (- ?x616 ?x5294)))
(let ((?x4880 (ite (or (= 22802 ?x1373) (= 25202 ?x1373)) 28 (select ?x108 ?x4930))))
(let (($x5292 (= 27 (ite (= 1 (ite (>= ?x4782 ?x4880) 1 0)) (- ?x4782 ?x4880) ?x4782))))
(let (($x5584 (= (+ ?x2205 (ite (>= ?x4782 ?x4880) 1 0)) (- (+ (* 2019 12) 2) 24003))))
(and $x5584 $x5292)))))))))))))))))))))))))))))))))))))))))))))))))))))))))))))))))))))))))))))))))))))))))))))))))))))))))))))))))))))))))))))))))))))))))))))))))))))))))))))))))))))))))))))))))))))))))))))))))))))
(check-sat)
